Route #1: 6 33 63 23 56 24 49 16
Route #2: 17 51 1 43 41 42 64 22 73
Route #3: 74 21 61 28 62 2 68
Route #4: 47 36 69 71 60 70 20 37 29 45
Route #5: 52 27 13 57 15 5 48 30
Route #6: 75 4 34 46 67
Route #7: 7 53 14 59 54 19 8
Route #8: 35 11 66 65 38 58
Route #9: 26 12 39 9 32 40
Route #10: 72 10 31 25 55 18 50 44 3
Cost 833
Time 0.49801
Tempo = 0.5093613999997615